260 455 981 0 527
347 0 503 790 965
518 372 789 60 910
395 737 0 597 970
777 592 37 426 1016
805 54 331 303 1039
909 418 591 80 808
962 616 810 451 117
152 247 542 825 1090
0 1077 603 908 90
90 671 897 484 1097
1000 838 457 151 622
1025 163 110 616 720
700 771 163 925 325
1066 902 220 696 261
714 1100 668 569 38
454 236 1047 780 837
615 980 1077 331 0
850 527 694 210 1044
200 287 414 999 635
